400
75 75
1 52 416
2 52 988
3 52 747
4 52 612
5 52 570
6 52 689
7 52 405
8 52 166
9 52 830
10 52 848
11 51 18
12 51 415
13 51 159
14 51 193
15 51 560
16 51 988
17 51 219
18 51 460
19 51 216
20 51 278
21 51 9
22 51 425
23 51 552
24 51 657
25 51 279
26 50 899
27 50 169
28 50 200
29 49 491
30 49 16
31 49 604
32 49 493
33 49 358
34 49 627
35 49 442
36 48 489
37 48 82
38 48 218
39 48 47
40 48 942
41 47 781
42 47 952
43 47 26
44 47 923
45 47 893
46 47 892
47 47 573
48 47 110
49 47 639
50 47 971
51 47 383
52 46 538
53 46 75
54 46 990
55 46 631
56 46 289
57 46 564
58 46 118
59 45 178
60 45 286
61 45 676
62 45 421
63 45 386
64 45 341
65 45 864
66 44 61
67 44 47
68 44 390
69 44 26
70 44 725
71 44 949
72 44 67
73 44 646
74 44 274
75 44 806
76 43 624
77 43 987
78 43 119
79 43 232
80 43 172
81 43 981
82 43 6
83 43 911
84 43 259
85 43 939
86 43 84
87 42 902
88 42 103
89 42 829
90 42 103
91 42 1000
92 41 771
93 41 654
94 41 88
95 41 904
96 41 974
97 41 402
98 41 576
99 41 586
100 40 300
101 40 568
102 40 823
103 40 57
104 40 917
105 39 664
106 39 200
107 39 37
108 39 487
109 39 341
110 39 728
111 39 254
112 39 129
113 39 998
114 39 89
115 38 102
116 38 332
117 38 514
118 38 571
119 38 28
120 38 277
121 37 869
122 37 826
123 37 23
124 37 694
125 37 654
126 37 60
127 37 354
128 37 619
129 37 988
130 37 442
131 36 968
132 36 621
133 36 733
134 36 195
135 36 957
136 35 742
137 35 357
138 35 499
139 35 61
140 35 367
141 35 719
142 35 135
143 35 936
144 34 563
145 34 666
146 34 870
147 34 577
148 34 179
149 34 837
150 34 39
151 34 771
152 34 406
153 34 525
154 34 916
155 34 730
156 33 319
157 33 396
158 33 194
159 33 484
160 33 793
161 33 77
162 33 911
163 33 936
164 33 612
165 33 966
166 33 861
167 32 17
168 32 94
169 32 287
170 32 517
171 32 935
172 32 361
173 31 19
174 31 717
175 31 577
176 31 22
177 31 486
178 31 11
179 31 64
180 30 288
181 30 188
182 30 177
183 30 488
184 30 723
185 30 988
186 30 595
187 30 174
188 29 496
189 29 597
190 29 108
191 29 362
192 29 526
193 29 80
194 29 430
195 29 610
196 29 135
197 29 814
198 29 453
199 29 876
200 29 3
201 29 551
202 28 89
203 28 367
204 28 879
205 28 367
206 28 819
207 28 27
208 28 266
209 28 533
210 28 118
211 28 629
212 28 359
213 27 180
214 27 55
215 27 237
216 27 908
217 27 627
218 27 767
219 27 50
220 27 599
221 27 736
222 26 243
223 26 879
224 26 488
225 26 448
226 26 237
227 26 716
228 26 273
229 26 437
230 26 704
231 26 610
232 26 38
233 25 371
234 25 194
235 25 24
236 25 669
237 25 649
238 25 374
239 25 264
240 25 170
241 25 900
242 25 615
243 25 2
244 25 463
245 24 955
246 24 678
247 24 432
248 24 394
249 24 364
250 24 830
251 24 135
252 24 61
253 24 774
254 24 772
255 23 809
256 23 98
257 23 541
258 23 251
259 23 12
260 23 616
261 23 744
262 23 283
263 22 661
264 22 690
265 22 54
266 22 90
267 22 370
268 22 297
269 22 398
270 22 980
271 22 115
272 21 867
273 21 492
274 21 972
275 21 618
276 21 355
277 21 427
278 21 896
279 21 188
280 21 20
281 21 932
282 20 638
283 20 108
284 20 974
285 20 794
286 19 112
287 19 768
288 19 119
289 19 845
290 19 839
291 19 103
292 19 199
293 19 432
294 19 18
295 19 591
296 19 519
297 19 823
298 18 65
299 18 654
300 18 643
301 18 803
302 18 175
303 18 4
304 18 877
305 18 788
306 18 389
307 18 781
308 18 342
309 17 633
310 17 197
311 17 594
312 17 363
313 17 667
314 17 484
315 17 812
316 17 714
317 17 261
318 17 104
319 17 611
320 17 180
321 17 488
322 16 8
323 16 31
324 16 81
325 16 398
326 16 557
327 16 306
328 15 790
329 15 747
330 15 538
331 15 552
332 15 522
333 15 642
334 15 819
335 15 902
336 14 387
337 14 74
338 14 111
339 14 906
340 14 889
341 14 369
342 13 495
343 13 294
344 13 699
345 13 214
346 13 200
347 13 651
348 13 997
349 13 561
350 13 194
351 12 720
352 12 61
353 12 398
354 12 576
355 12 578
356 12 495
357 12 692
358 12 756
359 11 312
360 11 705
361 11 733
362 11 20
363 11 343
364 11 175
365 10 218
366 10 569
367 10 929
368 10 344
369 10 591
370 10 591
371 10 298
372 10 5
373 10 371
374 10 67
375 10 325
376 10 7
377 10 679
378 10 231
379 9 948
380 9 1000
381 9 280
382 9 496
383 9 466
384 9 634
385 9 744
386 8 918
387 8 794
388 8 611
389 8 931
390 8 951
391 7 392
392 7 470
393 7 413
394 7 78
395 7 478
396 7 763
397 7 929
398 7 333
399 7 803
400 7 991
